2919 3922
2762 2587
4816 1059
939 2689
2440 2210
4834 1814
359 1851
3904 3121
3140 691
1630 258
1823 4245
3729 1464
4668 764
884 552
4502 2863
3655 359
1933 4659
4567 2992
1316 3720
4152 1648
1648 3066
1767 4742
3314 1997
2274 1491
3608 1095
4437 4548
1076 2043
3452 2292
321 1030
2651 2430
2670 1399
2467 3158
2449 4106
2209 902
2375 4484
837 4106
1160 3434
3673 3821
3434 2255
119 303
3683 1436
183 4622
4318 2541
1123 4364
1169 4999
2799 2485
2126 2246
865 2347
2006 2292
1435 1159
